10	5
0	3	1	6	2
1	1	4
2	0
3	1	5
4	3	7	9	10
5	3	7	10	9
6	2	4	3
7	2	11	8
8	1	11
9	1	11
10	1	11
11	0
0	0	0	0	0	0	0
1	2	4	5	1	5	0
2	3	4	0	5	4	1
3	1	2	4	4	4	1
4	1	1	1	4	3	4
5	6	5	0	0	0	1
6	10	1	5	2	1	1
7	8	4	1	4	5	0
8	1	0	0	5	0	0
9	5	0	0	3	4	4
10	1	2	3	4	2	4
11	0	0	0	0	0	0
5	5	5	5	5
